# Siesta input  
# Label 
SystemName          WSe2
SystemLabel         WSe2

# Atom Types
NumberOfAtoms          3
NumberOfSpecies        2
%block ChemicalSpeciesLabel
1  74  W
2  34  Se
%endblock ChemicalSpeciesLabel

# Calculation settings
PAO.BasisSize DZP  
XC.Functional LDA
XC.Authors    PZ
Spin spin-orbit
MeshCutoff         300 Ry

# Lattice + Basis
LatticeConstant    3.32  Ang 
%block LatticeVectors  
1.000000 0.0000000 0.000000
0.500000 0.8660254037844386 0.000000
0.000000 0.0000000 7.530120481927711
%endblock LatticeVectors

AtomicCoordinatesFormat Ang
%block AtomicCoordinatesAndAtomicSpecies
1.6600000000        0.9585052569        4.4860877494 1
0.0000000000        1.9169069794        6.1669978303 2
0.0000000000        1.9169063468        2.8054468917 2
%endblock AtomicCoordinatesAndAtomicSpecies

# kgrid
%block kgrid_Monkhorst_Pack
   9  0   0  0.0
   0  9 0  0.0
   0   0  1  0.0
%endblock Kgrid_Monkhorst_Pack

# Molecular Dynamics
MD.NumCGsteps           0
MD.TypeOfRun            CG                       
MD.VariableCell         F                        
MD.MaxCGDispl           0.4  Bohr       
MD.MaxForceTol          0.01 eV/Ang              
#SpinPolarized           F

# Self-consistency
MaxSCFIterations     500
DM.MixingWeight      0.02
DM.NumberPulay       5
SCF.DM.Tolerance     1.d-5 
SCF.H.Tolerance      1.d-4 eV
DM.MixSCF1 T

# Save data and restart option
Write.Denchar T
SaveTotalPotential T
SaveElectrostaticPotential T
DM.UseSaveDM T

# Electronic band structure 
BandLinesScale ReciprocalLatticeVectors
%block BandPoints
  0.00000000  0.00000000  0.00000000
  0.00000000  0.11111111  0.00000000
  0.00000000  0.22222222  0.00000000
  0.00000000  0.33333333  0.00000000
  0.00000000  0.44444444  0.00000000
  0.00000000  0.55555556  0.00000000
  0.00000000  0.66666667  0.00000000
  0.00000000  0.77777778  0.00000000
  0.00000000  0.88888889  0.00000000
  0.11111111  0.00000000  0.00000000
  0.11111111  0.11111111  0.00000000
  0.11111111  0.22222222  0.00000000
  0.11111111  0.33333333  0.00000000
  0.11111111  0.44444444  0.00000000
  0.11111111  0.55555556  0.00000000
  0.11111111  0.66666667  0.00000000
  0.11111111  0.77777778  0.00000000
  0.11111111  0.88888889  0.00000000
  0.22222222  0.00000000  0.00000000
  0.22222222  0.11111111  0.00000000
  0.22222222  0.22222222  0.00000000
  0.22222222  0.33333333  0.00000000
  0.22222222  0.44444444  0.00000000
  0.22222222  0.55555556  0.00000000
  0.22222222  0.66666667  0.00000000
  0.22222222  0.77777778  0.00000000
  0.22222222  0.88888889  0.00000000
  0.33333333  0.00000000  0.00000000
  0.33333333  0.11111111  0.00000000
  0.33333333  0.22222222  0.00000000
  0.33333333  0.33333333  0.00000000
  0.33333333  0.44444444  0.00000000
  0.33333333  0.55555556  0.00000000
  0.33333333  0.66666667  0.00000000
  0.33333333  0.77777778  0.00000000
  0.33333333  0.88888889  0.00000000
  0.44444444  0.00000000  0.00000000
  0.44444444  0.11111111  0.00000000
  0.44444444  0.22222222  0.00000000
  0.44444444  0.33333333  0.00000000
  0.44444444  0.44444444  0.00000000
  0.44444444  0.55555556  0.00000000
  0.44444444  0.66666667  0.00000000
  0.44444444  0.77777778  0.00000000
  0.44444444  0.88888889  0.00000000
  0.55555556  0.00000000  0.00000000
  0.55555556  0.11111111  0.00000000
  0.55555556  0.22222222  0.00000000
  0.55555556  0.33333333  0.00000000
  0.55555556  0.44444444  0.00000000
  0.55555556  0.55555556  0.00000000
  0.55555556  0.66666667  0.00000000
  0.55555556  0.77777778  0.00000000
  0.55555556  0.88888889  0.00000000
  0.66666667  0.00000000  0.00000000
  0.66666667  0.11111111  0.00000000
  0.66666667  0.22222222  0.00000000
  0.66666667  0.33333333  0.00000000
  0.66666667  0.44444444  0.00000000
  0.66666667  0.55555556  0.00000000
  0.66666667  0.66666667  0.00000000
  0.66666667  0.77777778  0.00000000
  0.66666667  0.88888889  0.00000000
  0.77777778  0.00000000  0.00000000
  0.77777778  0.11111111  0.00000000
  0.77777778  0.22222222  0.00000000
  0.77777778  0.33333333  0.00000000
  0.77777778  0.44444444  0.00000000
  0.77777778  0.55555556  0.00000000
  0.77777778  0.66666667  0.00000000
  0.77777778  0.77777778  0.00000000
  0.77777778  0.88888889  0.00000000
  0.88888889  0.00000000  0.00000000
  0.88888889  0.11111111  0.00000000
  0.88888889  0.22222222  0.00000000
  0.88888889  0.33333333  0.00000000
  0.88888889  0.44444444  0.00000000
  0.88888889  0.55555556  0.00000000
  0.88888889  0.66666667  0.00000000
  0.88888889  0.77777778  0.00000000
  0.88888889  0.88888889  0.00000000
%endblock BandPoints
