&BANDS
  prefix="WSe2",
  filband="Bands_QE",
/
