&inputpp
  outdir     =  './'
  prefix     =  'WSe2'
  seedname   =  'WSe2'
  write_amn  =  .true.
  write_mmn  =  .true.
  write_unk  =  .true.
/
