&CONTROL
  calculation  = "nscf"
  prefix       = "WSe2"
  pseudo_dir   = "."
  outdir       = "."
  verbosity="high"
/
&SYSTEM
  ibrav     = 0
  celldm(1) = 6.273890761180335
  nat       = 3
  ntyp      = 2
  ecutwfc   = 35
  lspinorb  = .true
  noncolin  = .true
  nosym     = .true
  nbnd      = 42
/
&ELECTRONS
  conv_thr    = 1.D-8
  mixing_beta = 0.3D0
/
&IONS
 ion_dynamics="bfgs"
/

CELL_PARAMETERS {alat}
1.0 0.0 0.0
0.5 0.8660254 0.0
0.0 0.0 6.024096385542169

ATOMIC_SPECIES
W 183.84 W.upf
Se 78.96 Se.upf

ATOMIC_POSITIONS {Angstrom}
W  1.6600000000        0.9585052569        4.4860877494
Se 0.0000000000        1.9169069794        6.1669978303
Se 0.0000000000        1.9169063468        2.8054468917

K_POINTS crystal
81
  0.00000000  0.00000000  0.00000000  1.234568e-02
  0.00000000  0.11111111  0.00000000  1.234568e-02
  0.00000000  0.22222222  0.00000000  1.234568e-02
  0.00000000  0.33333333  0.00000000  1.234568e-02
  0.00000000  0.44444444  0.00000000  1.234568e-02
  0.00000000  0.55555556  0.00000000  1.234568e-02
  0.00000000  0.66666667  0.00000000  1.234568e-02
  0.00000000  0.77777778  0.00000000  1.234568e-02
  0.00000000  0.88888889  0.00000000  1.234568e-02
  0.11111111  0.00000000  0.00000000  1.234568e-02
  0.11111111  0.11111111  0.00000000  1.234568e-02
  0.11111111  0.22222222  0.00000000  1.234568e-02
  0.11111111  0.33333333  0.00000000  1.234568e-02
  0.11111111  0.44444444  0.00000000  1.234568e-02
  0.11111111  0.55555556  0.00000000  1.234568e-02
  0.11111111  0.66666667  0.00000000  1.234568e-02
  0.11111111  0.77777778  0.00000000  1.234568e-02
  0.11111111  0.88888889  0.00000000  1.234568e-02
  0.22222222  0.00000000  0.00000000  1.234568e-02
  0.22222222  0.11111111  0.00000000  1.234568e-02
  0.22222222  0.22222222  0.00000000  1.234568e-02
  0.22222222  0.33333333  0.00000000  1.234568e-02
  0.22222222  0.44444444  0.00000000  1.234568e-02
  0.22222222  0.55555556  0.00000000  1.234568e-02
  0.22222222  0.66666667  0.00000000  1.234568e-02
  0.22222222  0.77777778  0.00000000  1.234568e-02
  0.22222222  0.88888889  0.00000000  1.234568e-02
  0.33333333  0.00000000  0.00000000  1.234568e-02
  0.33333333  0.11111111  0.00000000  1.234568e-02
  0.33333333  0.22222222  0.00000000  1.234568e-02
  0.33333333  0.33333333  0.00000000  1.234568e-02
  0.33333333  0.44444444  0.00000000  1.234568e-02
  0.33333333  0.55555556  0.00000000  1.234568e-02
  0.33333333  0.66666667  0.00000000  1.234568e-02
  0.33333333  0.77777778  0.00000000  1.234568e-02
  0.33333333  0.88888889  0.00000000  1.234568e-02
  0.44444444  0.00000000  0.00000000  1.234568e-02
  0.44444444  0.11111111  0.00000000  1.234568e-02
  0.44444444  0.22222222  0.00000000  1.234568e-02
  0.44444444  0.33333333  0.00000000  1.234568e-02
  0.44444444  0.44444444  0.00000000  1.234568e-02
  0.44444444  0.55555556  0.00000000  1.234568e-02
  0.44444444  0.66666667  0.00000000  1.234568e-02
  0.44444444  0.77777778  0.00000000  1.234568e-02
  0.44444444  0.88888889  0.00000000  1.234568e-02
  0.55555556  0.00000000  0.00000000  1.234568e-02
  0.55555556  0.11111111  0.00000000  1.234568e-02
  0.55555556  0.22222222  0.00000000  1.234568e-02
  0.55555556  0.33333333  0.00000000  1.234568e-02
  0.55555556  0.44444444  0.00000000  1.234568e-02
  0.55555556  0.55555556  0.00000000  1.234568e-02
  0.55555556  0.66666667  0.00000000  1.234568e-02
  0.55555556  0.77777778  0.00000000  1.234568e-02
  0.55555556  0.88888889  0.00000000  1.234568e-02
  0.66666667  0.00000000  0.00000000  1.234568e-02
  0.66666667  0.11111111  0.00000000  1.234568e-02
  0.66666667  0.22222222  0.00000000  1.234568e-02
  0.66666667  0.33333333  0.00000000  1.234568e-02
  0.66666667  0.44444444  0.00000000  1.234568e-02
  0.66666667  0.55555556  0.00000000  1.234568e-02
  0.66666667  0.66666667  0.00000000  1.234568e-02
  0.66666667  0.77777778  0.00000000  1.234568e-02
  0.66666667  0.88888889  0.00000000  1.234568e-02
  0.77777778  0.00000000  0.00000000  1.234568e-02
  0.77777778  0.11111111  0.00000000  1.234568e-02
  0.77777778  0.22222222  0.00000000  1.234568e-02
  0.77777778  0.33333333  0.00000000  1.234568e-02
  0.77777778  0.44444444  0.00000000  1.234568e-02
  0.77777778  0.55555556  0.00000000  1.234568e-02
  0.77777778  0.66666667  0.00000000  1.234568e-02
  0.77777778  0.77777778  0.00000000  1.234568e-02
  0.77777778  0.88888889  0.00000000  1.234568e-02
  0.88888889  0.00000000  0.00000000  1.234568e-02
  0.88888889  0.11111111  0.00000000  1.234568e-02
  0.88888889  0.22222222  0.00000000  1.234568e-02
  0.88888889  0.33333333  0.00000000  1.234568e-02
  0.88888889  0.44444444  0.00000000  1.234568e-02
  0.88888889  0.55555556  0.00000000  1.234568e-02
  0.88888889  0.66666667  0.00000000  1.234568e-02
  0.88888889  0.77777778  0.00000000  1.234568e-02
  0.88888889  0.88888889  0.00000000  1.234568e-02
