num_bands         =  15
num_wann          =  11

! Disentanglement when bands
! are not well separated from the rest
dis_froz_max      = 0.0
dis_mix_ratio     = 0.5d0
dis_num_iter      =  10000
dis_conv_tol      = 1.0d-8
! Use default lowest min eigenvalue
! Also use highest eigenvalue
!dis_win_min
!dis_win_max       =  1.25d0

num_iter          = 0
num_print_cycles  = 50
conv_window       = 3
num_cg_steps      = 15
conv_tol          = 1.0d-8
guiding_centres   = true
!trial_step        = 0.10

! Atom positions in fractional coords.
begin atoms_cart
ang
W             1.6600000000        0.9585052569        4.4860877494
Se            0.0000000000        1.9169069794        6.1669978303
Se            0.0000000000        1.9169063468        2.8054468917
end atoms_cart

! Exclude the following bands 
exclude_bands : 1 2

! Localised function as initial-guess
! Atomic orbitals at the site
Begin Projections     
W : l=2,mr=1,2,3,4,5
Se : l=1,mr=1,2,3
End Projections       

! Band-structure path    
begin kpoint_path
G 0.00000  0.00000 0.0000 M 0.50000  0.00000 0.0000
M 0.50000  0.00000 0.0000 K 0.66666  0.33333 0.0000
K 0.66666  0.33333 0.0000 G 0.00000  0.00000 0.0000
end kpoint_path


! Unit-cell lattice vectors
Begin Unit_Cell_Cart
ang
3.32 0.0000000 0.000000
1.66 2.875204340564336 0.000000
0.0000000 0.000000 25.0
End Unit_Cell_Cart

! MP-grid for ab-initio calculations
mp_grid      = 9 9 1

! Required by Wannier90
! Can be gnerated by kmesh.pl
begin kpoints
  0.00000000  0.00000000  0.00000000
  0.00000000  0.11111111  0.00000000
  0.00000000  0.22222222  0.00000000
  0.00000000  0.33333333  0.00000000
  0.00000000  0.44444444  0.00000000
  0.00000000  0.55555556  0.00000000
  0.00000000  0.66666667  0.00000000
  0.00000000  0.77777778  0.00000000
  0.00000000  0.88888889  0.00000000
  0.11111111  0.00000000  0.00000000
  0.11111111  0.11111111  0.00000000
  0.11111111  0.22222222  0.00000000
  0.11111111  0.33333333  0.00000000
  0.11111111  0.44444444  0.00000000
  0.11111111  0.55555556  0.00000000
  0.11111111  0.66666667  0.00000000
  0.11111111  0.77777778  0.00000000
  0.11111111  0.88888889  0.00000000
  0.22222222  0.00000000  0.00000000
  0.22222222  0.11111111  0.00000000
  0.22222222  0.22222222  0.00000000
  0.22222222  0.33333333  0.00000000
  0.22222222  0.44444444  0.00000000
  0.22222222  0.55555556  0.00000000
  0.22222222  0.66666667  0.00000000
  0.22222222  0.77777778  0.00000000
  0.22222222  0.88888889  0.00000000
  0.33333333  0.00000000  0.00000000
  0.33333333  0.11111111  0.00000000
  0.33333333  0.22222222  0.00000000
  0.33333333  0.33333333  0.00000000
  0.33333333  0.44444444  0.00000000
  0.33333333  0.55555556  0.00000000
  0.33333333  0.66666667  0.00000000
  0.33333333  0.77777778  0.00000000
  0.33333333  0.88888889  0.00000000
  0.44444444  0.00000000  0.00000000
  0.44444444  0.11111111  0.00000000
  0.44444444  0.22222222  0.00000000
  0.44444444  0.33333333  0.00000000
  0.44444444  0.44444444  0.00000000
  0.44444444  0.55555556  0.00000000
  0.44444444  0.66666667  0.00000000
  0.44444444  0.77777778  0.00000000
  0.44444444  0.88888889  0.00000000
  0.55555556  0.00000000  0.00000000
  0.55555556  0.11111111  0.00000000
  0.55555556  0.22222222  0.00000000
  0.55555556  0.33333333  0.00000000
  0.55555556  0.44444444  0.00000000
  0.55555556  0.55555556  0.00000000
  0.55555556  0.66666667  0.00000000
  0.55555556  0.77777778  0.00000000
  0.55555556  0.88888889  0.00000000
  0.66666667  0.00000000  0.00000000
  0.66666667  0.11111111  0.00000000
  0.66666667  0.22222222  0.00000000
  0.66666667  0.33333333  0.00000000
  0.66666667  0.44444444  0.00000000
  0.66666667  0.55555556  0.00000000
  0.66666667  0.66666667  0.00000000
  0.66666667  0.77777778  0.00000000
  0.66666667  0.88888889  0.00000000
  0.77777778  0.00000000  0.00000000
  0.77777778  0.11111111  0.00000000
  0.77777778  0.22222222  0.00000000
  0.77777778  0.33333333  0.00000000
  0.77777778  0.44444444  0.00000000
  0.77777778  0.55555556  0.00000000
  0.77777778  0.66666667  0.00000000
  0.77777778  0.77777778  0.00000000
  0.77777778  0.88888889  0.00000000
  0.88888889  0.00000000  0.00000000
  0.88888889  0.11111111  0.00000000
  0.88888889  0.22222222  0.00000000
  0.88888889  0.33333333  0.00000000
  0.88888889  0.44444444  0.00000000
  0.88888889  0.55555556  0.00000000
  0.88888889  0.66666667  0.00000000
  0.88888889  0.77777778  0.00000000
  0.88888889  0.88888889  0.00000000
End Kpoints

! Restart from checkpoint file
restart = default
bands_plot = true
write_u_matrices = .true
write_hr = .true
!wannier_plot = .true.
!wannier_plot_supercell = 3
